\* Pricing_problem *\
Minimize
OBJ: - 0.285714285714 M_0,0 - 0.142857142857 M_0,2 - 0.428571428571 M_0,3
 - 0.285714285714 M_1,0 - 0.428571428571 M_1,2 - 0.142857142857 M_1,3
 - 0.285714285714 M_2,3 - 0.142857142857 M_2,4 - 0.285714285714 M_3,2
 + 2.71428571429 M_3,3 - 0.285714285714 M_4,0 - 0.142857142857 M_4,1
 - 0.428571428571 M_5,0 - 0.285714285714 M_5,2 + 3.71428571429 M_5,4
 - 0.428571428571 M_6,2 - 0.142857142857 M_6,3 - 0.285714285714 M_6,4
Subject To
LESS_CAP_0: M_0,0 + M_1,0 + M_4,0 + M_5,0 <= 2
LESS_CAP_1: M_4,1 <= 2
LESS_CAP_2: M_0,2 + M_1,2 + M_3,2 + M_5,2 + M_6,2 <= 2
LESS_CAP_3: M_0,3 + M_1,3 + M_2,3 + M_3,3 + M_6,3 <= 1
LESS_CAP_4: M_2,4 + M_5,4 + M_6,4 <= 2
LESS_ONE_0: M_0,0 + M_0,2 + M_0,3 <= 1
LESS_ONE_1: M_1,0 + M_1,2 + M_1,3 <= 1
LESS_ONE_2: M_2,3 + M_2,4 <= 1
LESS_ONE_3: M_3,2 + M_3,3 <= 1
LESS_ONE_4: M_4,0 + M_4,1 <= 1
LESS_ONE_5: M_5,0 + M_5,2 + M_5,4 <= 1
LESS_ONE_6: M_6,2 + M_6,3 + M_6,4 <= 1
STAB_0_0: 2 M_0,0 + 2 M_0,2 + M_4,0 >= 2
STAB_0_2: 2 M_0,2 + M_1,2 + M_3,2 + M_5,2 + M_6,2 >= 2
STAB_0_3: M_0,0 + M_0,2 + M_0,3 >= 1
STAB_1_0: M_0,0 + 2 M_1,0 + 2 M_1,3 + M_4,0 + M_5,0 >= 2
STAB_1_2: 2 M_1,0 + 2 M_1,2 + 2 M_1,3 + M_5,2 >= 2
STAB_1_3: M_0,3 + M_1,3 + M_2,3 + M_3,3 + M_6,3 >= 1
STAB_2_3: M_0,3 + M_1,3 + M_2,3 + M_2,4 + M_3,3 + M_6,3 >= 1
STAB_2_4: 2 M_2,4 >= 2
STAB_3_2: M_1,2 + 2 M_3,2 + 2 M_3,3 + M_5,2 + M_6,2 >= 2
STAB_3_3: M_0,3 + M_3,3 + M_6,3 >= 1
STAB_4_0: M_0,0 + 2 M_4,0 + 2 M_4,1 >= 2
STAB_4_1: 2 M_4,1 >= 2
STAB_5_0: M_0,0 + M_1,0 + M_4,0 + 2 M_5,0 + 2 M_5,2 + 2 M_5,4 >= 2
STAB_5_2: M_1,2 + 2 M_5,2 + 2 M_5,4 >= 2
STAB_5_4: M_2,4 + 2 M_5,4 + M_6,4 >= 2
STAB_6_2: M_1,2 + M_3,2 + M_5,2 + 2 M_6,2 + 2 M_6,3 + 2 M_6,4 >= 2
STAB_6_3: M_0,3 + M_3,3 + M_6,3 >= 1
STAB_6_4: M_2,4 + 2 M_6,3 + 2 M_6,4 >= 2
Bounds
 __dummy = 0
Binaries
M_0,0
M_0,2
M_0,3
M_1,0
M_1,2
M_1,3
M_2,3
M_2,4
M_3,2
M_3,3
M_4,0
M_4,1
M_5,0
M_5,2
M_5,4
M_6,2
M_6,3
M_6,4
End
